# Objective value = 38
WA1n 0
WA1p 0
WA2n 0
WA2p 1
WB1n 0
WB1p 0
WB2n 0
WB2p 1
WC1n 0
WC1p 0
WC2n 0
WC2p 1
WD1n 1
WD1p 0
WD2n 1
WD2p 0
WE1n 0
WE1p 2
WF1n 0
WF1p 2
WG1n 0
WG1p 2
WH1n 0
WH1p 7
WH2n 0
WH2p 1
WI1n 9
WI1p 0
WI2n 1
WI2p 0
WT1n 1
WT1p 0
WT2n 1
WT2p 0
5 7
a 0
b 1
c 0
d 1
e 0
f 1
g 0
h 0
i 1
j 1
k 1
l 1
m 1
n 0
o 0
p 0
q 0
